certificates/rado_a9_c246_N28.drat
-27 -28 0
-28 0
22 0
27 0
-24 0
-19 0
-25 0
18 0
13 0
0
